(set-logic QF_S)
(declare-fun H () String)
(declare-fun K () String)
(declare-fun G () String)
(declare-fun J () String)
(declare-fun N () String)
(declare-fun M () String)
(assert (= (str.++  H "aaaa" H "aaab" H H "baab" N)  (str.++  "a" G "aaaaaa" J "a" J "a" J "a" J "ab" K "a" K "ab" M M "baa") ))
(check-sat)
(get-model)
